#######################
Slurm job id: 17497813_78
Running on machine: p47
Running cmd: /nfs/shared/static-builds/gurobi1003 SOFTMEMLIMIT=125 MIPFocus=3 Presolve=2 TimeLimit=500 seed=17 /nfs/models/miplib2010/k16x240.mps.bz2
#######################
Set parameter TimeLimit to value 500
Set parameter SoftMemLimit to value 125
Set parameter MIPFocus to value 3
Set parameter LogFile to value 1003-MIPFocus3-Presolve2-TimeLimit500-k16x240-7.log
Set parameter Presolve to value 2
Set parameter Seed to value 17
Using license file /opt/gurobi/gurobi.lic

Gurobi Optimizer version 10.0.3 build v10.0.3rc0 (linux64)
Copyright (c) 2023, Gurobi Optimization, LLC

Read MPS format model from file /nfs/models/miplib2010/k16x240.mps.bz2
Reading time = 0.00 seconds
k16x240: 256 rows, 480 columns, 960 nonzeros

CPU model: Intel(R) Xeon(R) E-2388G CPU @ 3.20GHz, instruction set [SSE2|AVX|AVX2|AVX512]
Thread count: 8 physical cores, 16 logical processors, using up to 16 threads

Optimize a model with 256 rows, 480 columns and 960 nonzeros
Model fingerprint: 0x4e80885f
Variable types: 240 continuous, 240 integer (240 binary)
Coefficient statistics:
  Matrix range     [1e+00, 1e+03]
  Objective range  [1e+00, 1e+03]
  Bounds range     [1e+00, 1e+03]
  RHS range        [4e+00, 4e+02]
Found heuristic solution: objective 21882.000000
Presolve time: 0.00s
Presolved: 256 rows, 480 columns, 960 nonzeros
Variable types: 240 continuous, 240 integer (240 binary)
Root relaxation presolve removed 241 rows and 240 columns
Root relaxation presolved: 15 rows, 240 columns, 450 nonzeros


Root relaxation: objective 2.769838e+03, 16 iterations, 0.00 seconds (0.00 work units)

    Nodes    |    Current Node    |     Objective Bounds      |     Work
 Expl Unexpl |  Obj  Depth IntInf | Incumbent    BestBd   Gap | It/Node Time

     0     0 2769.83800    0   14 21882.0000 2769.83800  87.3%     -    0s
H    0     0                    11359.000000 2769.83800  75.6%     -    0s
H    0     0                    11271.000000 2769.83800  75.4%     -    0s
H    0     0                    11261.000000 8116.87580  27.9%     -    0s
H    0     0                    11240.000000 8116.87580  27.8%     -    0s
H    0     0                    11164.000000 8116.87580  27.3%     -    0s
H    0     0                    11077.000000 8116.87580  26.7%     -    0s
     0     0 8116.87580    0   26 11077.0000 8116.87580  26.7%     -    0s
H    0     0                    11001.000000 8116.87580  26.2%     -    0s
     0     0 8753.88483    0   25 11001.0000 8753.88483  20.4%     -    0s
H    0     0                    10949.000000 8753.88483  20.0%     -    0s
     0     0 8808.75686    0   19 10949.0000 8808.75686  19.5%     -    0s
     0     0 8808.75686    0   18 10949.0000 8808.75686  19.5%     -    0s
     0     0 8808.75686    0   23 10949.0000 8808.75686  19.5%     -    0s
     0     0 8808.75686    0   23 10949.0000 8808.75686  19.5%     -    0s
     0     0 8967.29278    0   39 10949.0000 8967.29278  18.1%     -    0s
H    0     0                    10765.000000 8967.29278  16.7%     -    0s
     0     0 9001.69936    0   39 10765.0000 9001.69936  16.4%     -    0s
     0     0 9088.83536    0   44 10765.0000 9088.83536  15.6%     -    0s
     0     0 9150.24381    0   30 10765.0000 9150.24381  15.0%     -    0s
H    0     0                    10681.000000 9150.24381  14.3%     -    0s
     0     0 9191.51334    0   33 10681.0000 9191.51334  13.9%     -    0s
     0     0 9197.59901    0   38 10681.0000 9197.59901  13.9%     -    0s
     0     0 9197.59901    0   38 10681.0000 9197.59901  13.9%     -    0s
H    0     0                    10678.000000 9197.59901  13.9%     -    0s
     0     2 9197.59901    0   38 10678.0000 9197.59901  13.9%     -    0s
H 1639  1502                    10674.000000 9795.84250  8.23%  42.3    2s
  2753  2279 10232.0406   28   49 10674.0000 10163.6623  4.78%  74.4    5s
 11384  7307 10534.9594   27   16 10674.0000 10416.5048  2.41%  62.3   10s
 29735 11121 10610.1886   29   28 10674.0000 10566.2577  1.01%  46.3   15s

Cutting planes:
  Lift-and-project: 10
  Implied bound: 10
  MIR: 126
  Flow cover: 511
  Flow path: 32
  Zero half: 38
  Network: 14
  Relax-and-lift: 2

Explored 52011 nodes (1763629 simplex iterations) in 17.95 seconds (34.12 work units)
Thread count was 16 (of 16 available processors)

Solution count 10: 10674 10678 10681 ... 11261

Optimal solution found (tolerance 1.00e-04)
Best objective 1.067400000000e+04, best bound 1.067315964726e+04, gap 0.0079%
